n_res = 4;
rc = [ 18, 22, 20, 18 ];
n_tasks = 15;
d = [ 7, 10, 3, 1, 250, 250, 25, 225, 75, 250, 150, 4, 6, 3, 9 ];
rr = [| 1, 0, 0, 2, 7, 0, 6, 6, 0, 0, 7, 7, 0, 3, 0
      | 7, 5, 0, 0, 0, 0, 0, 0, 0, 7, 0, 4, 8, 0, 8
      | 3, 0, 0, 10, 8, 3, 4, 9, 0, 0, 0, 0, 0, 9, 0
      | 0, 9, 9, 5, 3, 1, 0, 3, 8, 3, 0, 0, 10, 0, 5 |];
suc = [ { 5, 6, 7 },
       { 4 },
       { 8, 9 },
       { 11 },
       { 14 },
       { 10 },
       {  },
       {  },
       { 12, 13 },
       {  },
       { 13 },
       { 14, 15 },
       { 14, 15 },
       {  },
       {  } ];
